n= 4
m= 17
1350
1600
1800
2100
1057	30	5
1032	20	5
1012	35	5
1002	20	5
992	150	5
942	40	5
952	50	5
972	200	5
922	40	5
912	75	5
902	40	5
842	20	5
822	110	5
812	45	5
772	50	5
742	30	5
642	70	5
